4 
5  16 36 52 
6  07 25 39 54 
7  09 24 39 54 
8  09 24 39 54 
9  09 24 39 54 
10  09 24 39 54 
11  09 24 39 54 
12  09 24 39 54 
13  10 25 40 55 
14  10 25 40 55 
15  10 25 40 55 
16  10 25 40 55 
17  10 25 40 55 
18  10 25 40 55 
19  09 24 39 54 
20  09 24 39 51 
21  06 21 36 51 
22  06 21 36 51 
23  06 21 
0 
